La  O 
 1.0000000000000000
    11.7576234637999999    0.0000000000000000    0.0000000000000000
    -5.8788117318899999   10.1824006075000000    0.0000000000000000
     0.0000000000000000    0.0000000000000000   16.1091265248000006
 La  O  
  18  29
Selective dynamics
Direct
  0.2224812616950000  0.1108130045440000  0.3402102669920000   T   T   T
  0.6666666666670000  0.0000000000000000  0.1514912140250000   F   F   F
  0.6666666666670000  0.6666666666670000  0.1514912140250000   F   F   F
  0.0000000000000000  0.6666666666670000  0.1514912140250000   F   F   F
  0.6666666666670000  0.3333333333330000  0.1514912140250000   F   F   F
  0.3333333333330000  0.3333333333330000  0.1514912140250000   F   F   F
  0.0000000000000000  0.3333333333330000  0.1514912140250000   F   F   F
  0.3333333333330000  0.0000000000000000  0.1514912140250000   F   F   F
  0.0000000000000000  0.0000000000000000  0.1514912140250000   F   F   F
  0.3333333333330000  0.6666666666670000  0.1514912140250000   F   F   F
  0.8891083426100000  0.1111791136730000  0.3402044837800000   T   T   T
  0.2225539146360000  0.4445749283950000  0.3403510598430000   T   T   T
  0.5562294481509999  0.4442568347900000  0.3397654033500000   T   T   T
  0.8891638959049999  0.4445377913730000  0.3403196575820000   T   T   T
  0.2227173951020000  0.7776242270200000  0.3402438876800000   T   T   T
  0.5557575147210000  0.7779291634270000  0.3401499247490000   T   T   T
  0.8894625954199998  0.7779131686529999  0.3402540984280000   T   T   T
  0.5558614544299999  0.1112880494600000  0.3403679583650000   T   T   T
  0.1111111100000000  0.2222222200000000  0.2447978147820000   F   F   F
  0.7777777766669999  0.5555555533330000  0.2447978147820000   F   F   F
  0.2222222200000000  0.1111111066670000  0.1103617514620000   F   F   F
  0.5555555533329999  0.1111111066670000  0.1103617514620000   F   F   F
  0.8888888866669999  0.1111111066670000  0.1103617514620000   F   F   F
  0.5555555533329999  0.7777777733330000  0.1103617514620000   F   F   F
  0.5555555533329999  0.4444444399999999  0.1103617514620000   F   F   F
  0.8888888866669999  0.4444444399999999  0.1103617514620000   F   F   F
  0.8888888866669999  0.7777777733330000  0.1103617514620000   F   F   F
  0.2222222200000000  0.4444444399999999  0.1103617514620000   F   F   F
  0.4444444433330000  0.2222222200000000  0.2447978147820000   F   F   F
  0.2222222200000000  0.7777777733330000  0.1103617514620000   F   F   F
  0.7777777766669999  0.2222222200000000  0.2447978147820000   F   F   F
  0.6669783630329998  0.0001505989760000  0.3790028252910000   T   T   T
  0.1111111100000000  0.8888888866670001  0.2447978147820000   F   F   F
  0.7777777766669999  0.8888888866670001  0.2447978147820000   F   F   F
  0.4444444433330000  0.8888888866670001  0.2447978147820000   F   F   F
  0.4444444433330000  0.5555555533330000  0.2447978147820000   F   F   F
  0.6669728372170000  0.3334190316390000  0.3791372459940000   T   T   T
  0.0002164210620000  0.0000821881750000  0.3794105961810000   T   T   T
  0.3335099662409999  0.9997664008660000  0.3789751393810000   T   T   T
  0.5449627670780000  0.5590678724250000  0.5497968298530000   T   T   T
  0.0002638163850000  0.3333595952259999  0.3790431703290000   T   T   T
  0.3332340451440000  0.3328223161070000  0.3778890472860000   T   T   T
  0.0005521425490000  0.6668431434120000  0.3789760325730000   T   T   T
  0.6675007863340000  0.6672604549579999  0.3777686174270000   T   T   T
  0.3337216906250000  0.6665484161570000  0.3793607760460000   T   T   T
  0.1111111100000000  0.5555555533330000  0.2447978147820000   F   F   F
  0.4463386200770000  0.4481511298559999  0.5534448903710000   T   T   T
