La2 O3                                  
   1.00000000000000     
    11.7448997498000001    0.0000000000000000    0.0000000000000000
    -5.8724498749000000   10.1713815481999994    0.0000000000000000
     0.0000000000000000    0.0000000000000000   16.0846753120000017
   La   O 
   18   29
Selective dynamics
Direct
  0.2222222238703893  0.1111111119609873  0.1513026843124621   F   F   F
  0.2222222238728264  0.4444444477456457  0.1513026843124621   F   F   F
  0.2222222238649252  0.7777777910022436  0.1513026843124621   F   F   F
  0.5555555820428708  0.1111111119609873  0.1513026843124621   F   F   F
  0.5555555820453080  0.4444444477456457  0.1513026843124621   F   F   F
  0.5555555820374067  0.7777777910022436  0.1513026843124621   F   F   F
  0.8888888955151018  0.1111111119609873  0.1513026843124621   F   F   F
  0.8888888955175389  0.4444444477456457  0.1513026843124621   F   F   F
  0.8888888955096377  0.7777777910022436  0.1513026843124621   F   F   F
  0.1111111119609873  0.2222222239219818  0.3390351775021400   T   T   T
  0.1111111119684054  0.5555555820241551  0.3390351775021400   T   T   T
  0.1111111119658617  0.8888888954912915  0.3390351775021400   T   T   T
  0.4444444477407785  0.2222222239219818  0.3390351775021400   T   T   T
  0.4444444477481895  0.5555555820241551  0.3390351775021400   T   T   T
  0.4444444477456457  0.8888888954912915  0.3390351775021400   T   T   T
  0.7777777910131718  0.2222222239219818  0.3390351775021400   T   T   T
  0.7777777910205899  0.5555555820241551  0.3390351775021400   T   T   T
  0.7777777910180461  0.8888888954912915  0.3390351775021400   T   T   T
  0.2222222238703893  0.1111111119609873  0.3772436600253383   T   T   T
  0.2222222238728264  0.4444444477456457  0.3772436600253383   T   T   T
  0.2222222238649252  0.7777777910022436  0.3772436600253383   T   T   T
  0.5555555820428708  0.1111111119609873  0.3772436600253383   T   T   T
  0.5555555820453080  0.4444444477456457  0.3772436600253383   T   T   T
  0.5555555820374067  0.7777777910022436  0.3772436600253383   T   T   T
  0.8888888955151018  0.1111111119609873  0.3772436600253383   T   T   T
  0.8888888955175389  0.4444444477456457  0.3772436600253383   T   T   T
  0.8888888955096377  0.7777777910022436  0.3772436600253383   T   T   T
  0.1111111119609873  0.2222222239219818  0.1102281831376004   F   F   F
  0.1111111119684054  0.5555555820241551  0.1102281831376004   F   F   F
  0.1111111119658617  0.8888888954912915  0.1102281831376004   F   F   F
  0.4444444477407785  0.2222222239219818  0.1102281831376004   F   F   F
  0.4444444477481895  0.5555555820241551  0.1102281831376004   F   F   F
  0.4444444477456457  0.8888888954912915  0.1102281831376004   F   F   F
  0.7777777910131718  0.2222222239219818  0.1102281831376004   F   F   F
  0.7777777910205899  0.5555555820241551  0.1102281831376004   F   F   F
  0.7777777910180461  0.8888888954912915  0.1102281831376004   F   F   F
  0.0000000000000000  0.0000000000000000  0.2441863366100847   F   F   F
  0.9999999999920988  0.3333333432565979  0.2441863366100847   F   F   F
  0.9999999999841975  0.6666666865132029  0.2441863366100847   F   F   F
  0.3333333432724004  0.0000000000000000  0.2441863366100847   F   F   F
  0.3333333432644991  0.3333333432565979  0.2441863366100847   F   F   F
  0.3333333432565979  0.6666666865132029  0.2441863366100847   F   F   F
  0.6666666865448008  0.0000000000000000  0.2441863366100847   F   F   F
  0.6666666865368995  0.3333333432565979  0.2441863366100847   F   F   F
  0.6666666865289983  0.6666666865132029  0.2441863366100847   F   F   F
  0.544914585608      0.558865318983      0.549477141518       T   T   T
  0.446450967619      0.448220866871      0.553206790596       T   T   T

 
  0.00000000E+00  0.00000000E+00  0.00000000E+00
  0.00000000E+00  0.00000000E+00  0.00000000E+00
  0.00000000E+00  0.00000000E+00  0.00000000E+00
  0.00000000E+00  0.00000000E+00  0.00000000E+00
  0.00000000E+00  0.00000000E+00  0.00000000E+00
  0.00000000E+00  0.00000000E+00  0.00000000E+00
  0.00000000E+00  0.00000000E+00  0.00000000E+00
  0.00000000E+00  0.00000000E+00  0.00000000E+00
  0.00000000E+00  0.00000000E+00  0.00000000E+00
  0.00000000E+00  0.00000000E+00  0.00000000E+00
  0.00000000E+00  0.00000000E+00  0.00000000E+00
  0.00000000E+00  0.00000000E+00  0.00000000E+00
  0.00000000E+00  0.00000000E+00  0.00000000E+00
  0.00000000E+00  0.00000000E+00  0.00000000E+00
  0.00000000E+00  0.00000000E+00  0.00000000E+00
  0.00000000E+00  0.00000000E+00  0.00000000E+00
  0.00000000E+00  0.00000000E+00  0.00000000E+00
  0.00000000E+00  0.00000000E+00  0.00000000E+00
  0.00000000E+00  0.00000000E+00  0.00000000E+00
  0.00000000E+00  0.00000000E+00  0.00000000E+00
  0.00000000E+00  0.00000000E+00  0.00000000E+00
  0.00000000E+00  0.00000000E+00  0.00000000E+00
  0.00000000E+00  0.00000000E+00  0.00000000E+00
  0.00000000E+00  0.00000000E+00  0.00000000E+00
  0.00000000E+00  0.00000000E+00  0.00000000E+00
  0.00000000E+00  0.00000000E+00  0.00000000E+00
  0.00000000E+00  0.00000000E+00  0.00000000E+00
  0.00000000E+00  0.00000000E+00  0.00000000E+00
  0.00000000E+00  0.00000000E+00  0.00000000E+00
  0.00000000E+00  0.00000000E+00  0.00000000E+00
  0.00000000E+00  0.00000000E+00  0.00000000E+00
  0.00000000E+00  0.00000000E+00  0.00000000E+00
  0.00000000E+00  0.00000000E+00  0.00000000E+00
  0.00000000E+00  0.00000000E+00  0.00000000E+00
  0.00000000E+00  0.00000000E+00  0.00000000E+00
  0.00000000E+00  0.00000000E+00  0.00000000E+00
  0.00000000E+00  0.00000000E+00  0.00000000E+00
  0.00000000E+00  0.00000000E+00  0.00000000E+00
  0.00000000E+00  0.00000000E+00  0.00000000E+00
  0.00000000E+00  0.00000000E+00  0.00000000E+00
  0.00000000E+00  0.00000000E+00  0.00000000E+00
  0.00000000E+00  0.00000000E+00  0.00000000E+00
  0.00000000E+00  0.00000000E+00  0.00000000E+00
  0.00000000E+00  0.00000000E+00  0.00000000E+00
  0.00000000E+00  0.00000000E+00  0.00000000E+00
