La  O 
 1.0000000000000000
    11.7576234637999999    0.0000000000000000    0.0000000000000000
    -5.8788117318899999   10.1824006075000000    0.0000000000000000
     0.0000000000000000    0.0000000000000000   16.1091265248000006
 La  O  
  18  29
Selective dynamics
Direct
  0.2204740542381999  0.1057293189268000  0.3370916023628000   T   T   T
  0.6666666666670000  0.0000000000000000  0.1514912140250000   F   F   F
  0.6666666666670000  0.6666666666670000  0.1514912140250000   F   F   F
  0.0000000000000000  0.6666666666670000  0.1514912140250000   F   F   F
  0.6666666666670000  0.3333333333330000  0.1514912140250000   F   F   F
  0.3333333333330000  0.3333333333330000  0.1514912140250000   F   F   F
  0.0000000000000000  0.3333333333330000  0.1514912140250000   F   F   F
  0.3333333333330000  0.0000000000000000  0.1514912140250000   F   F   F
  0.0000000000000000  0.0000000000000000  0.1514912140250000   F   F   F
  0.3333333333330000  0.6666666666670000  0.1514912140250000   F   F   F
  0.8889676825236000  0.1112367197534000  0.3403123184248000   T   T   T
  0.2207073661860000  0.4449741799082000  0.3415116479750000   T   T   T
  0.5533581513961999  0.4466256416776000  0.3457999197432000   T   T   T
  0.8873271755482000  0.4445526474258000  0.3403711205960000   T   T   T
  0.2233316271344000  0.7769967359168000  0.3397876585512000   T   T   T
  0.5551610732885999  0.7793859289125999  0.3413729075262000   T   T   T
  0.8944622866843998  0.7797471352661999  0.3367882510396000   T   T   T
  0.5557374841607999  0.1129541541988000  0.3403503202865999   T   T   T
  0.1111111100000000  0.2222222200000000  0.2447978147820000   F   F   F
  0.7777777766669999  0.5555555533330000  0.2447978147820000   F   F   F
  0.2222222200000000  0.1111111066670000  0.1103617514620000   F   F   F
  0.5555555533329999  0.1111111066670000  0.1103617514620000   F   F   F
  0.8888888866669999  0.1111111066670000  0.1103617514620000   F   F   F
  0.5555555533329999  0.7777777733330000  0.1103617514620000   F   F   F
  0.5555555533329999  0.4444444399999999  0.1103617514620000   F   F   F
  0.8888888866669999  0.4444444399999999  0.1103617514620000   F   F   F
  0.8888888866669999  0.7777777733330000  0.1103617514620000   F   F   F
  0.2222222200000000  0.4444444399999999  0.1103617514620000   F   F   F
  0.4444444433330000  0.2222222200000000  0.2447978147820000   F   F   F
  0.2222222200000000  0.7777777733330000  0.1103617514620000   F   F   F
  0.7777777766669999  0.2222222200000000  0.2447978147820000   F   F   F
  0.6667339002729999  0.0014710222928000  0.3789099134538000   T   T   T
  0.1111111100000000  0.8888888866670001  0.2447978147820000   F   F   F
  0.7777777766669999  0.8888888866670001  0.2447978147820000   F   F   F
  0.4444444433330000  0.8888888866670001  0.2447978147820000   F   F   F
  0.4444444433330000  0.5555555533330000  0.2447978147820000   F   F   F
  0.6652727419453999  0.3349356424198000  0.3803790565632000   T   T   T
  0.0006656055280000 -0.0005831832518000  0.3775810884154000   T   T   T
  0.3335635537461999  0.9992909519908000  0.3781602158718000   T   T   T
  0.5589313824508000  0.5893430703678000  0.5050765451878000   T   T   T
 -0.0012570818406000  0.3334899732704000  0.3790405100042000   T   T   T
  0.3240488923828000  0.3203452813854000  0.3821044396644000   T   T   T
  0.0009893407878001  0.6667658083588001  0.3780077151530000   T   T   T
  0.6796980652475999  0.6760330030607999  0.3813992538166000   T   T   T
  0.3325129119610000  0.6676150322818000  0.3783627035228000   T   T   T
  0.1111111100000000  0.5555555533330000  0.2447978147820000   F   F   F
  0.4136150000009999  0.4373082561619999  0.5073885783154000   T   T   T
