La  O 
 1.0000000000000000
    11.7576234637999999    0.0000000000000000    0.0000000000000000
    -5.8788117318899999   10.1824006075000000    0.0000000000000000
     0.0000000000000000    0.0000000000000000   16.1091265248000006
 La  O  
  18  29
Selective dynamics
Direct
  0.2184668467814000  0.1006456333096000  0.3339729377336000   T   T   T
  0.6666666666670000  0.0000000000000000  0.1514912140250000   F   F   F
  0.6666666666670000  0.6666666666670000  0.1514912140250000   F   F   F
  0.0000000000000000  0.6666666666670000  0.1514912140250000   F   F   F
  0.6666666666670000  0.3333333333330000  0.1514912140250000   F   F   F
  0.3333333333330000  0.3333333333330000  0.1514912140250000   F   F   F
  0.0000000000000000  0.3333333333330000  0.1514912140250000   F   F   F
  0.3333333333330000  0.0000000000000000  0.1514912140250000   F   F   F
  0.0000000000000000  0.0000000000000000  0.1514912140250000   F   F   F
  0.3333333333330000  0.6666666666670000  0.1514912140250000   F   F   F
  0.8888270224372000  0.1112943258338000  0.3404201530696000   T   T   T
  0.2188608177359999  0.4453734314214000  0.3426722361070000   T   T   T
  0.5504868546413999  0.4489944485651999  0.3518344361364000   T   T   T
  0.8854904551914000  0.4445675034786000  0.3404225836100001   T   T   T
  0.2239458591668000  0.7763692448135999  0.3393314294224000   T   T   T
  0.5545646318561999  0.7808426943982000  0.3425958903034000   T   T   T
  0.8994619779487997  0.7815811018793999  0.3333224036512000   T   T   T
  0.5556135138916000  0.1146202589376000  0.3403326822082000   T   T   T
  0.1111111100000000  0.2222222200000000  0.2447978147820000   F   F   F
  0.7777777766669999  0.5555555533330000  0.2447978147820000   F   F   F
  0.2222222200000000  0.1111111066670000  0.1103617514620000   F   F   F
  0.5555555533329999  0.1111111066670000  0.1103617514620000   F   F   F
  0.8888888866669999  0.1111111066670000  0.1103617514620000   F   F   F
  0.5555555533329999  0.7777777733330000  0.1103617514620000   F   F   F
  0.5555555533329999  0.4444444399999999  0.1103617514620000   F   F   F
  0.8888888866669999  0.4444444399999999  0.1103617514620000   F   F   F
  0.8888888866669999  0.7777777733330000  0.1103617514620000   F   F   F
  0.2222222200000000  0.4444444399999999  0.1103617514620000   F   F   F
  0.4444444433330000  0.2222222200000000  0.2447978147820000   F   F   F
  0.2222222200000000  0.7777777733330000  0.1103617514620000   F   F   F
  0.7777777766669999  0.2222222200000000  0.2447978147820000   F   F   F
  0.6664894375129999  0.0027914456096000  0.3788170016166000   T   T   T
  0.1111111100000000  0.8888888866670001  0.2447978147820000   F   F   F
  0.7777777766669999  0.8888888866670001  0.2447978147820000   F   F   F
  0.4444444433330000  0.8888888866670001  0.2447978147820000   F   F   F
  0.4444444433330000  0.5555555533330000  0.2447978147820000   F   F   F
  0.6635726466738000  0.3364522532006000  0.3816208671324000   T   T   T
  0.0011147899940000 -0.0012485546786000  0.3757515806498000   T   T   T
  0.3336171412513999  0.9988155031155999  0.3773452923626000   T   T   T
  0.5728999978236000  0.6196182683105999  0.4603562605226000   T   T   T
 -0.0027779800662000  0.3336203513147999  0.3790378496794000   T   T   T
  0.3148637396216000  0.3078682466638000  0.3863198320428000   T   T   T
  0.0014265390266000  0.6666884733056000  0.3770393977330000   T   T   T
  0.6918953441612000  0.6848055511636000  0.3850298902062000   T   T   T
  0.3313041332969999  0.6686816484065999  0.3773646309996000   T   T   T
  0.1111111100000000  0.5555555533330000  0.2447978147820000   F   F   F
  0.3808913799249999  0.4264653824679999  0.4613322662598000   T   T   T
