La2 O3                                  
1.0
       11.7448997498         0.0000000000         0.0000000000
       -5.8724498749        10.1713815482         0.0000000000
        0.0000000000         0.0000000000        16.0846753120
   La    O
   18   27
Selective dynamics
Cartesian
     1.957483306         1.130153514         2.433654551   F F F
     0.000000000         4.520614055         2.433654551   F F F
    -1.957483350         7.911074672         2.433654551   F F F
     5.872450181         1.130153514         2.433654551   F F F
     3.914966875         4.520614055         2.433654551   F F F
     1.957483525         7.911074672         2.433654551   F F F
     9.787416531         1.130153514         2.433654551   F F F
     7.829933225         4.520614055         2.433654551   F F F
     5.872449875         7.911074672         2.433654551   F F F
     0.000000000         2.260307028         5.421661329   T T T
    -1.957483437         5.650767796         5.421661329   T T T
    -3.914966612         9.041228110         5.421661329   T T T
     3.914966612         2.260307028         5.421661329   T T T
     1.957483175         5.650767796         5.421661329   T T T
     0.000000000         9.041228110         5.421661329   T T T
     7.829933312         2.260307028         5.421661329   T T T
     5.872449875         5.650767796         5.421661329   T T T
     3.914966700         9.041228110         5.421661329   T T T
     1.957483306         1.130153514         6.082331344   T T T
     0.000000000         4.520614055         6.082331344   T T T
    -1.957483350         7.911074672         6.082331344   T T T
     5.872450181         1.130153514         6.082331344   T T T
     3.914966875         4.520614055         6.082331344   T T T
     1.957483525         7.911074672         6.082331344   T T T
     9.787416531         1.130153514         6.082331344   T T T
     7.829933225         4.520614055         6.082331344   T T T
     5.872449875         7.911074672         6.082331344   T T T
     0.000000000         2.260307028         1.772984536   F F F
    -1.957483437         5.650767796         1.772984536   F F F
    -3.914966612         9.041228110         1.772984536   F F F
     3.914966612         2.260307028         1.772984536   F F F
     1.957483175         5.650767796         1.772984536   F F F
     0.000000000         9.041228110         1.772984536   F F F
     7.829933312         2.260307028         1.772984536   F F F
     5.872449875         5.650767796         1.772984536   F F F
     3.914966700         9.041228110         1.772984536   F F F
     0.000000000         0.000000000         3.927657940   F F F
    -1.957483350         3.390460617         3.927657940   F F F
    -3.914966700         6.780921234         3.927657940   F F F
     3.914966700         0.000000000         3.927657940   F F F
     1.957483350         3.390460617         3.927657940   F F F
     0.000000000         6.780921234         3.927657940   F F F
     7.829933400         0.000000000         3.927657940   F F F
     5.872450050         3.390460617         3.927657940   F F F
     3.914966700         6.780921234         3.927657940   F F F
