La2 O3                                  
   1.00000000000000     
     1.9574833363894353   -3.3904605935959413    0.0000000000000000
     1.9574833363894353    3.3904605935959413   -0.0000000000000000
    -0.0000000000000000    0.0000000000000000    6.0846752917363940
   La   O 
     2     3
Direct
  0.6666666666666643  0.3333333333333357  0.7544645715099718
  0.3333333333333357  0.6666666666666643  0.2455354284900282
  0.6666666666666643  0.3333333333333357  0.3541147587509654
  0.3333333333333357  0.6666666666666643  0.6458852412490348
  0.0000000000000000  0.0000000000000000  0.0000000000000000
 
  0.00000000E+00  0.00000000E+00  0.00000000E+00
  0.00000000E+00  0.00000000E+00  0.00000000E+00
  0.00000000E+00  0.00000000E+00  0.00000000E+00
  0.00000000E+00  0.00000000E+00  0.00000000E+00
  0.00000000E+00  0.00000000E+00  0.00000000E+00
