La  O 
 1.0000000000000000
    11.7576234637999999    0.0000000000000000    0.0000000000000000
    -5.8788117318899999   10.1824006075000000    0.0000000000000000
     0.0000000000000000    0.0000000000000000   16.1091265248000006
 La  O  
  18  29
Selective dynamics
Direct
  0.2194704505097999  0.1031874761182000  0.3355322700482000   T   T   T
  0.6666666666670000  0.0000000000000000  0.1514912140250000   F   F   F
  0.6666666666670000  0.6666666666670000  0.1514912140250000   F   F   F
  0.0000000000000000  0.6666666666670000  0.1514912140250000   F   F   F
  0.6666666666670000  0.3333333333330000  0.1514912140250000   F   F   F
  0.3333333333330000  0.3333333333330000  0.1514912140250000   F   F   F
  0.0000000000000000  0.3333333333330000  0.1514912140250000   F   F   F
  0.3333333333330000  0.0000000000000000  0.1514912140250000   F   F   F
  0.0000000000000000  0.0000000000000000  0.1514912140250000   F   F   F
  0.3333333333330000  0.6666666666670000  0.1514912140250000   F   F   F
  0.8888973524804000  0.1112655227936000  0.3403662357472000   T   T   T
  0.2197840919610000  0.4451738056648000  0.3420919420410000   T   T   T
  0.5519225030188000  0.4478100451214000  0.3488171779398000   T   T   T
  0.8864088153698000  0.4445600754521999  0.3403968521030000   T   T   T
  0.2236387431505999  0.7766829903651999  0.3395595439868000   T   T   T
  0.5548628525723999  0.7801143116554000  0.3419843989148000   T   T   T
  0.8969621323165997  0.7806641185727999  0.3350553273453999   T   T   T
  0.5556754990261999  0.1137872065682000  0.3403415012474000   T   T   T
  0.1111111100000000  0.2222222200000000  0.2447978147820000   F   F   F
  0.7777777766669999  0.5555555533330000  0.2447978147820000   F   F   F
  0.2222222200000000  0.1111111066670000  0.1103617514620000   F   F   F
  0.5555555533329999  0.1111111066670000  0.1103617514620000   F   F   F
  0.8888888866669999  0.1111111066670000  0.1103617514620000   F   F   F
  0.5555555533329999  0.7777777733330000  0.1103617514620000   F   F   F
  0.5555555533329999  0.4444444399999999  0.1103617514620000   F   F   F
  0.8888888866669999  0.4444444399999999  0.1103617514620000   F   F   F
  0.8888888866669999  0.7777777733330000  0.1103617514620000   F   F   F
  0.2222222200000000  0.4444444399999999  0.1103617514620000   F   F   F
  0.4444444433330000  0.2222222200000000  0.2447978147820000   F   F   F
  0.2222222200000000  0.7777777733330000  0.1103617514620000   F   F   F
  0.7777777766669999  0.2222222200000000  0.2447978147820000   F   F   F
  0.6666116688929999  0.0021312339512000  0.3788634575352000   T   T   T
  0.1111111100000000  0.8888888866670001  0.2447978147820000   F   F   F
  0.7777777766669999  0.8888888866670001  0.2447978147820000   F   F   F
  0.4444444433330000  0.8888888866670001  0.2447978147820000   F   F   F
  0.4444444433330000  0.5555555533330000  0.2447978147820000   F   F   F
  0.6644226943096000  0.3356939478102000  0.3809999618478000   T   T   T
  0.0008901977610000 -0.0009158689652000  0.3766663345326000   T   T   T
  0.3335903474987998  0.9990532275531998  0.3777527541172001   T   T   T
  0.5659156901372000  0.6044806693392000  0.4827164028552000   T   T   T
 -0.0020175309534000  0.3335551622926000  0.3790391798418000   T   T   T
  0.3194563160022000  0.3141067640246000  0.3842121358536000   T   T   T
  0.0012079399072000  0.6667271408322000  0.3775235564430000   T   T   T
  0.6857967047044000  0.6804192771122000  0.3832145720114000   T   T   T
  0.3319085226289999  0.6681483403441999  0.3778636672612000   T   T   T
  0.1111111100000000  0.5555555533330000  0.2447978147820000   F   F   F
  0.3972531899629999  0.4318868193149999  0.4843604222876000   T   T   T
