La  O 
 1.0000000000000000
    11.7576234637999999    0.0000000000000000    0.0000000000000000
    -5.8788117318899999   10.1824006075000000    0.0000000000000000
     0.0000000000000000    0.0000000000000000   16.1091265248000006
 La  O  
  18  29
Selective dynamics
Direct
  0.2214776579666000  0.1082711617354000  0.3386509346774000   T   T   T
  0.6666666666670000  0.0000000000000000  0.1514912140250000   F   F   F
  0.6666666666670000  0.6666666666670000  0.1514912140250000   F   F   F
  0.0000000000000000  0.6666666666670000  0.1514912140250000   F   F   F
  0.6666666666670000  0.3333333333330000  0.1514912140250000   F   F   F
  0.3333333333330000  0.3333333333330000  0.1514912140250000   F   F   F
  0.0000000000000000  0.3333333333330000  0.1514912140250000   F   F   F
  0.3333333333330000  0.0000000000000000  0.1514912140250000   F   F   F
  0.0000000000000000  0.0000000000000000  0.1514912140250000   F   F   F
  0.3333333333330000  0.6666666666670000  0.1514912140250000   F   F   F
  0.8890380125668000  0.1112079167132000  0.3402584011024000   T   T   T
  0.2216306404110000  0.4447745541516001  0.3409313539090000   T   T   T
  0.5547937997735999  0.4454412382338000  0.3427826615466000   T   T   T
  0.8882455357265999  0.4445452193993999  0.3403453890890000   T   T   T
  0.2230245111182000  0.7773104814684000  0.3400157731156000   T   T   T
  0.5554592940047999  0.7786575461698000  0.3407614161376000   T   T   T
  0.8919624410521998  0.7788301519595999  0.3385211747338000   T   T   T
  0.5557994692953999  0.1121211018294000  0.3403591393258000   T   T   T
  0.1111111100000000  0.2222222200000000  0.2447978147820000   F   F   F
  0.7777777766669999  0.5555555533330000  0.2447978147820000   F   F   F
  0.2222222200000000  0.1111111066670000  0.1103617514620000   F   F   F
  0.5555555533329999  0.1111111066670000  0.1103617514620000   F   F   F
  0.8888888866669999  0.1111111066670000  0.1103617514620000   F   F   F
  0.5555555533329999  0.7777777733330000  0.1103617514620000   F   F   F
  0.5555555533329999  0.4444444399999999  0.1103617514620000   F   F   F
  0.8888888866669999  0.4444444399999999  0.1103617514620000   F   F   F
  0.8888888866669999  0.7777777733330000  0.1103617514620000   F   F   F
  0.2222222200000000  0.4444444399999999  0.1103617514620000   F   F   F
  0.4444444433330000  0.2222222200000000  0.2447978147820000   F   F   F
  0.2222222200000000  0.7777777733330000  0.1103617514620000   F   F   F
  0.7777777766669999  0.2222222200000000  0.2447978147820000   F   F   F
  0.6668561316530000  0.0008108106344000  0.3789563693724000   T   T   T
  0.1111111100000000  0.8888888866670001  0.2447978147820000   F   F   F
  0.7777777766669999  0.8888888866670001  0.2447978147820000   F   F   F
  0.4444444433330000  0.8888888866670001  0.2447978147820000   F   F   F
  0.4444444433330000  0.5555555533330000  0.2447978147820000   F   F   F
  0.6661227895811999  0.3341773370294000  0.3797581512786000   T   T   T
  0.0004410132950000 -0.0002504975384000  0.3784958422982000   T   T   T
  0.3335367599936000  0.9995286764284000  0.3785676776264000   T   T   T
  0.5519470747644000  0.5742054713964000  0.5274366875204001   T   T   T
 -0.0004966327278000  0.3334247842482000  0.3790418401666000   T   T   T
  0.3286414687633999  0.3265837987462000  0.3799967434752000   T   T   T
  0.0007707416684000  0.6668044758854000  0.3784918738630000   T   T   T
  0.6735994257907999  0.6716467290093999  0.3795839356218000   T   T   T
  0.3331173012929999  0.6670817242193999  0.3788617397844000   T   T   T
  0.1111111100000000  0.5555555533330000  0.2447978147820000   F   F   F
  0.4299768100390000  0.4427296930089999  0.5304167343431999   T   T   T
