La  O 
 1.0000000000000000
    11.7576234637999999    0.0000000000000000    0.0000000000000000
    -5.8788117318899999   10.1824006075000000    0.0000000000000000
     0.0000000000000000    0.0000000000000000   16.1091265248000006
 La  O  
  18  29
Selective dynamics
Direct
  0.2174632430530000  0.0981037905010000  0.3324136054190000   T   T   T
  0.6666666666670000  0.0000000000000000  0.1514912140250000   F   F   F
  0.6666666666670000  0.6666666666670000  0.1514912140250000   F   F   F
  0.0000000000000000  0.6666666666670000  0.1514912140250000   F   F   F
  0.6666666666670000  0.3333333333330000  0.1514912140250000   F   F   F
  0.3333333333330000  0.3333333333330000  0.1514912140250000   F   F   F
  0.0000000000000000  0.3333333333330000  0.1514912140250000   F   F   F
  0.3333333333330000  0.0000000000000000  0.1514912140250000   F   F   F
  0.0000000000000000  0.0000000000000000  0.1514912140250000   F   F   F
  0.3333333333330000  0.6666666666670000  0.1514912140250000   F   F   F
  0.8887566923940000  0.1113231288740000  0.3404740703920000   T   T   T
  0.2179375435110000  0.4455730571780000  0.3432525301730000   T   T   T
  0.5490512062639998  0.4501788520089999  0.3548516943330000   T   T   T
  0.8845720950130000  0.4445749315050000  0.3404483151170000   T   T   T
  0.2242529751830000  0.7760554992620000  0.3391033148580000   T   T   T
  0.5542664111399999  0.7815710771409999  0.3432073816920000   T   T   T
  0.9019618235809999  0.7824980851859999  0.3315894799570000   T   T   T
  0.5555515287569999  0.1154533113070000  0.3403238631690000   T   T   T
  0.1111111100000000  0.2222222200000000  0.2447978147820000   F   F   F
  0.7777777766669999  0.5555555533330000  0.2447978147820000   F   F   F
  0.2222222200000000  0.1111111066670000  0.1103617514620000   F   F   F
  0.5555555533329999  0.1111111066670000  0.1103617514620000   F   F   F
  0.8888888866669999  0.1111111066670000  0.1103617514620000   F   F   F
  0.5555555533329999  0.7777777733330000  0.1103617514620000   F   F   F
  0.5555555533329999  0.4444444399999999  0.1103617514620000   F   F   F
  0.8888888866669999  0.4444444399999999  0.1103617514620000   F   F   F
  0.8888888866669999  0.7777777733330000  0.1103617514620000   F   F   F
  0.2222222200000000  0.4444444399999999  0.1103617514620000   F   F   F
  0.4444444433330000  0.2222222200000000  0.2447978147820000   F   F   F
  0.2222222200000000  0.7777777733330000  0.1103617514620000   F   F   F
  0.7777777766669999  0.2222222200000000  0.2447978147820000   F   F   F
  0.6663672061329999  0.0034516572680000  0.3787705456980000   T   T   T
  0.1111111100000000  0.8888888866670001  0.2447978147820000   F   F   F
  0.7777777766669999  0.8888888866670001  0.2447978147820000   F   F   F
  0.4444444433330000  0.8888888866670001  0.2447978147820000   F   F   F
  0.4444444433330000  0.5555555533330000  0.2447978147820000   F   F   F
  0.6627225990379999  0.3372105585910000  0.3822417724170000   T   T   T
  0.0013393822270000 -0.0015812403920000  0.3748368267670000   T   T   T
  0.3336439350039999  0.9985777786779999  0.3769378306080000   T   T   T
  0.5798843055100000  0.6347558672820000  0.4379961181900000   T   T   T
 -0.0035384291790000  0.3336855403370000  0.3790365195170000   T   T   T
  0.3102711632410000  0.3016297293030000  0.3884275282320000   T   T   T
  0.0016451381460000  0.6666498057790000  0.3765552390230000   T   T   T
  0.6979939836179999  0.6891918252150000  0.3868452084010000   T   T   T
  0.3306997439649999  0.6692149564689999  0.3768655947380000   T   T   T
  0.1111111100000000  0.5555555533330000  0.2447978147820000   F   F   F
  0.3645295698869999  0.4210439456209999  0.4383041102320000   T   T   T
